variable	out_freq equal 500
variable	out_freq2 equal 5000

neigh_modify    delay 10 every 1
include		in.na

timestep	0.002 # According to Frenkel and Smit is 0.001

thermo          ${out_freq}
thermo_style 	custom step temp pe press lx

restart 	${out_freq} restart.${p_id} restart2.${p_id}


