### Argon Potential Parameters ###
pair_style 	eam/fs
pair_coeff 	* * ../Al1.eam.fs Al
